67
4 8 91 99 64 
3 34 31 59 
3 88 81 94 
2 9 84 
1 37 
2 93 78 
2 68 50 
1 17 
2 22 72 
4 114 33 120 36 
2 6 99 
1 110 
3 46 92 11 
2 37 104 
1 79 
1 119 
3 47 62 60 
2 80 57 
2 18 120 
3 34 59 32 
1 21 
1 21 
1 71 
1 17 
1 108 
2 86 100 
2 44 42 
2 41 96 
1 111 
2 80 26 
2 56 28 
1 113 
2 63 116 
2 118 16 
1 117 
3 42 93 39 
2 1 10 
3 43 58 65 
2 68 22 
2 97 100 
1 110 
1 96 
2 118 49 
1 113 
1 29 
3 61 53 95 
2 90 14 
2 27 3 
2 47 41 
2 61 38 
1 45 
2 50 5 
2 25 12 
1 112 
2 103 28 
2 22 41 
1 21 
1 112 
1 101 
2 88 76 
1 50 
1 55 
2 6 67 
2 40 30 
1 115 
2 58 68 
1 15 
